p cnf 200 799
-13 28 -1 -25 0
-7 29 -13 -19 0
-16 -7 30 -25 0
-22 -13 -4 31 0
32 -19 -10 -1 0
33 -22 -19 -25 0
-7 35 -4 -1 0
-23 -6 36 0
-12 37 -17 0
-24 -5 38 0
-11 -18 39 0
40 -23 -5 0
41 -11 -17 0
-24 -6 42 0
43 -12 -18 0
-21 44 -26 0
45 -2 -9 0
-20 -27 46 0
-8 -3 47 0
48 -23 -4 0
49 -22 -5 0
50 -10 -17 0
-16 51 -11 0
-20 -26 52 0
-8 53 -2 0
-21 -27 54 0
-31 -54 -37 -47 0
-31 -54 -45 -39 0
-9 -3 55 0
56 -14 -18 0
57 -14 -12 0
58 -19 -26 0
-31 -45 -39 -58 0
-8 59 -1 0
-7 60 -2 0
-20 61 -25 0
-31 -61 -47 -37 0
-24 -4 62 0
-6 -22 63 0
64 -14 -11 0
65 -14 -17 0
66 -20 -3 0
67 -26 -9 0
-8 68 -27 0
-21 69 -2 0
-15 -11 70 0
-15 -17 71 0
72 -15 -5 0
73 -23 -15 0
-8 74 -26 0
75 -20 -2 0
-14 -6 76 0
-24 -14 77 0
-16 -12 78 0
79 -10 -18 0
80 -14 -5 0
81 -14 -23 0
-8 82 -19 0
83 -2 -25 0
-7 -20 84 0
85 -1 -26 0
-15 -18 86 0
-15 -12 87 0
-24 -15 88 0
89 -6 -15 0
-27 90 -19 0
91 -1 -9 0
-7 92 -3 0
-21 93 -25 0
-21 -3 94 0
-9 -27 95 0
-8 96 -25 0
97 -19 -2 0
98 -20 -1 0
-7 99 -26 0
-14 -22 100 0
-14 -4 101 0
-16 -14 102 0
-14 -10 103 0
104 -13 -11 0
105 -13 -17 0
106 -13 -5 0
-23 107 -13 0
108 -3 -25 0
-19 109 -9 0
-27 110 -1 0
-7 -21 111 0
-16 -15 112 0
-15 -10 113 0
-15 -22 114 0
-15 115 -4 0
-13 116 -18 0
-24 -13 117 0
-13 -12 118 0
-6 -13 119 0
-16 120 -10 0
-120 34 -13 0
-8 121 -28 -20 0
-63 -37 -121 0
-78 -38 -121 0
-79 -36 -121 0
-63 -39 -121 0
-79 -38 -121 0
-22 -41 -4 -121 0
-43 -42 -121 0
-48 -43 -121 0
-120 -40 -121 0
-49 -43 -121 0
-48 -50 -121 0
-42 -50 -121 0
-49 -50 -121 0
-39 -62 -121 0
-48 -51 -121 0
-62 -37 -121 0
-51 -42 -121 0
-49 -51 -121 0
-78 -36 -121 0
122 -29 -26 -2 0
-22 -4 -122 -41 0
-122 -43 -42 0
-40 -120 -122 0
-48 -43 -122 0
-43 -122 -49 0
-48 -122 -50 0
-122 -50 -42 0
-122 -50 -49 0
-39 -62 -122 0
-78 -38 -122 0
-48 -51 -122 0
-62 -37 -122 0
-63 -39 -122 0
-78 -36 -122 0
-122 -51 -42 0
-51 -122 -49 0
-79 -36 -122 0
-63 -37 -122 0
-79 -38 -122 0
123 -28 -20 -9 0
-8 124 -21 -28 0
125 -29 -27 -2 0
126 -29 -3 -26 0
-21 -28 127 -9 0
-40 -127 -43 0
-48 -127 -41 0
-127 -41 -49 0
-127 -42 -41 0
-40 -127 -50 0
-40 -127 -51 0
128 -3 -29 -27 0
-48 -128 -41 0
-128 -41 -49 0
-40 -128 -50 0
-128 -42 -41 0
-40 -43 -128 0
-40 -51 -128 0
-31 129 -52 0
-79 -45 -129 0
-60 -43 -129 0
-60 -50 -129 0
-55 -50 -129 0
-39 -91 -129 0
-55 -43 -129 0
-55 -51 -129 0
-37 -91 -129 0
-7 -129 -1 -41 0
-78 -45 -129 0
-120 -53 -129 0
-37 -92 -129 0
-47 -78 -129 0
-79 -47 -129 0
-43 -59 -129 0
-51 -59 -129 0
-39 -92 -129 0
-64 -30 130 0
-48 -98 -130 0
-63 -69 -130 0
-98 -130 -49 0
-62 -130 -66 0
-94 -130 -42 0
-63 -66 -130 0
-98 -42 -130 0
-48 -130 -97 0
-97 -130 -49 0
-62 -69 -130 0
-42 -130 -97 0
-3 -38 -19 -130 0
-3 -36 -19 -130 0
-130 -21 -36 -1 0
-130 -38 -21 -1 0
-94 -130 -49 0
-48 -94 -130 0
-32 131 -65 0
-96 -131 -49 0
-48 -131 -99 0
-96 -131 -48 0
-63 -67 -131 0
-131 -99 -49 0
-62 -131 -67 0
-96 -131 -42 0
-62 -68 -131 0
-42 -131 -99 0
-63 -68 -131 0
-95 -131 -42 0
-48 -95 -131 0
-95 -131 -49 0
-7 -36 -27 -131 0
-7 -38 -27 -131 0
-38 -9 -131 -25 0
-9 -36 -131 -25 0
-31 -53 132 0
-132 -51 -58 0
-93 -132 -37 0
-39 -132 -90 0
-61 -132 -50 0
-61 -132 -43 0
-37 -132 -90 0
-54 -132 -50 0
-132 -43 -58 0
-41 -132 -19 -25 0
-54 -132 -43 0
-54 -132 -51 0
-78 -46 -132 0
-78 -44 -132 0
-79 -44 -132 0
-79 -46 -132 0
-39 -93 -132 0
-37 -35 133 0
-88 -133 -44 0
-46 -133 -100 0
-88 -46 -133 0
-77 -61 -133 0
-117 -52 -133 0
-73 -61 -133 0
-133 -58 -73 0
-54 -77 -133 0
-77 -58 -133 0
-54 -133 -73 0
-133 -44 -107 0
-46 -133 -107 0
-133 -52 -114 0
-81 -93 -133 0
-133 -90 -81 0
-100 -133 -44 0
-37 134 -33 0
-47 -134 -106 0
-72 -134 -59 0
-80 -134 -92 0
-55 -134 -76 0
-134 -45 -89 0
-47 -134 -89 0
-119 -134 -53 0
-134 -53 -115 0
-134 -76 -60 0
-80 -134 -91 0
-72 -134 -60 0
-134 -101 -45 0
-134 -76 -59 0
-72 -55 -134 0
-134 -45 -106 0
-47 -134 -101 0
-39 -35 135 0
-135 -93 -81 0
-135 -77 -58 0
-135 -54 -73 0
-135 -90 -81 0
-135 -61 -73 0
-135 -117 -52 0
-135 -44 -100 0
-135 -46 -100 0
-88 -135 -46 0
-135 -44 -107 0
-135 -46 -107 0
-135 -52 -114 0
-88 -135 -44 0
-135 -54 -77 0
-135 -61 -77 0
-135 -58 -73 0
136 -39 -33 0
-136 -45 -101 0
-136 -45 -106 0
-136 -47 -106 0
-136 -47 -101 0
-80 -136 -91 0
-136 -55 -76 0
-136 -76 -60 0
-80 -92 -136 0
-136 -53 -115 0
-136 -76 -59 0
-72 -136 -59 0
-72 -55 -136 0
-136 -47 -89 0
-136 -45 -89 0
-72 -60 -136 0
-136 -119 -53 0
137 -45 -34 0
-137 -44 -49 0
-46 -137 -49 0
-61 -36 -137 0
-62 -52 -137 0
-63 -52 -137 0
-40 -93 -137 0
-44 -42 -137 0
-46 -42 -137 0
-54 -36 -137 0
-54 -38 -137 0
-38 -58 -137 0
-36 -58 -137 0
-40 -90 -137 0
-38 -61 -137 0
-48 -44 -137 0
-48 -46 -137 0
-47 138 -34 0
-63 -52 -138 0
-40 -90 -138 0
-54 -38 -138 0
-54 -36 -138 0
-62 -52 -138 0
-38 -138 -58 0
-38 -61 -138 0
-36 -58 -138 0
-61 -36 -138 0
-44 -42 -138 0
-46 -138 -42 0
-48 -46 -138 0
-48 -44 -138 0
-40 -93 -138 0
-44 -138 -49 0
-46 -138 -49 0
-32 139 -36 0
-96 -71 -139 0
-86 -139 -67 0
-102 -139 -67 0
-116 -139 -74 0
-56 -139 -99 0
-112 -139 -74 0
-71 -99 -139 0
-105 -139 -67 0
-68 -139 -105 0
-56 -95 -139 0
-71 -95 -139 0
-102 -68 -139 0
-86 -68 -139 0
-96 -139 -56 0
-32 -38 140 0
-112 -140 -74 0
-96 -71 -140 0
-56 -140 -99 0
-71 -140 -99 0
-140 -67 -105 0
-68 -140 -105 0
-116 -140 -74 0
-102 -68 -140 0
-71 -95 -140 0
-56 -95 -140 0
-102 -140 -67 0
-96 -140 -56 0
-86 -68 -140 0
-86 -140 -67 0
-30 -36 141 0
-141 -98 -57 0
-87 -69 -141 0
-87 -141 -66 0
-141 -75 -113 0
-70 -141 -97 0
-94 -70 -141 0
-118 -141 -75 0
-94 -141 -57 0
-103 -69 -141 0
-103 -141 -66 0
-57 -141 -97 0
-104 -69 -141 0
-104 -141 -66 0
-70 -141 -98 0
-38 -30 142 0
-87 -142 -66 0
-87 -142 -69 0
-118 -75 -142 0
-70 -94 -142 0
-103 -142 -69 0
-94 -142 -57 0
-103 -142 -66 0
-104 -142 -66 0
-104 -142 -69 0
-142 -75 -113 0
-70 -142 -97 0
-97 -142 -57 0
-70 -98 -142 0
-142 -98 -57 0
-31 -41 143 0
-143 -54 -60 0
-143 -46 -92 0
-47 -93 -143 0
-143 -45 -93 0
-55 -61 -143 0
-55 -54 -143 0
-55 -143 -58 0
-47 -143 -90 0
-143 -45 -90 0
-143 -54 -59 0
-143 -44 -91 0
-143 -46 -91 0
-143 -44 -92 0
144 -53 -34 0
-48 -54 -144 0
-144 -58 -42 0
-144 -61 -42 0
-48 -61 -144 0
-48 -144 -58 0
-144 -54 -42 0
-144 -62 -44 0
-144 -62 -46 0
-144 -63 -46 0
-144 -63 -44 0
-144 -36 -90 0
-144 -93 -36 0
145 -28 -41 0
-48 -82 -145 0
-84 -42 -145 0
-42 -82 -145 0
-111 -36 -145 0
-111 -38 -145 0
-145 -82 -49 0
-40 -7 -19 -145 0
-38 -109 -145 0
-48 -84 -145 0
-109 -36 -145 0
-145 -84 -49 0
-40 -30 146 0
-66 -146 -113 0
-69 -146 -113 0
-104 -94 -146 0
-87 -94 -146 0
-118 -146 -66 0
-87 -146 -97 0
-87 -98 -146 0
-118 -69 -146 0
-70 -21 -146 -1 0
-3 -70 -19 -146 0
-13 -75 -146 -10 0
-40 -32 147 0
-95 -147 -105 0
-71 -25 -147 -9 0
-116 -147 -67 0
-68 -116 -147 0
-147 -71 -27 -7 0
-95 -86 -147 0
-96 -86 -147 0
-86 -147 -99 0
-16 -13 -147 -74 0
-112 -147 -67 0
-112 -68 -147 0
-40 148 -28 0
-39 -109 -148 0
-109 -148 -37 0
-111 -37 -148 0
-84 -148 -50 0
-111 -148 -39 0
-84 -148 -43 0
-84 -148 -51 0
-148 -43 -82 0
-148 -51 -82 0
-148 -50 -82 0
-31 -44 149 0
-39 -149 -59 0
-55 -149 -39 0
-55 -37 -149 0
-45 -43 -149 0
-39 -149 -60 0
-37 -60 -149 0
-47 -149 -43 0
-45 -50 -149 0
-45 -51 -149 0
-47 -149 -51 0
-31 -46 150 0
-39 -150 -59 0
-150 -37 -59 0
-55 -150 -39 0
-55 -150 -37 0
-150 -37 -60 0
-150 -45 -43 0
-47 -150 -43 0
-47 -150 -50 0
-150 -45 -50 0
-47 -150 -51 0
-33 -45 151 0
-151 -76 -51 0
-151 -76 -43 0
-151 -76 -50 0
-72 -151 -43 0
-72 -151 -51 0
-72 -151 -50 0
-151 -115 -41 0
-119 -151 -41 0
152 -47 -33 0
-152 -76 -50 0
-152 -76 -43 0
-152 -76 -51 0
-152 -115 -41 0
-72 -152 -50 0
-72 -152 -43 0
-72 -152 -51 0
-152 -119 -41 0
153 -44 -35 0
-153 -114 -41 0
-41 -117 -153 0
-153 -50 -73 0
-153 -51 -73 0
-153 -43 -73 0
-77 -43 -153 0
-77 -50 -153 0
-77 -51 -153 0
-46 -35 154 0
-43 -154 -73 0
-51 -154 -73 0
-50 -154 -73 0
-77 -51 -154 0
-77 -43 -154 0
-77 -50 -154 0
-114 -154 -41 0
-117 -154 -41 0
-29 155 -41 0
-48 -85 -155 0
-108 -36 -155 0
-38 -108 -155 0
-48 -155 -83 0
-155 -42 -83 0
-110 -36 -155 0
-38 -155 -110 0
-49 -155 -83 0
-85 -155 -42 0
-85 -155 -49 0
-40 -29 156 0
-39 -156 -108 0
-39 -110 -156 0
-110 -37 -156 0
-156 -83 -50 0
-156 -51 -83 0
-156 -43 -83 0
-85 -156 -50 0
-85 -156 -43 0
-85 -156 -51 0
-108 -37 -156 0
-40 157 -34 0
-55 -61 -157 0
-55 -54 -157 0
-55 -157 -58 0
-46 -157 -91 0
-157 -44 -91 0
-54 -157 -59 0
-46 -157 -92 0
-92 -157 -44 0
-54 -157 -60 0
-32 -74 158 0
-102 -158 -49 0
-102 -42 -158 0
-48 -102 -158 0
-56 -63 -158 0
-56 -62 -158 0
-86 -42 -158 0
-48 -86 -158 0
-86 -158 -49 0
-30 -75 159 0
-103 -159 -49 0
-63 -159 -57 0
-159 -62 -57 0
-48 -87 -159 0
-87 -159 -49 0
-87 -159 -42 0
-103 -159 -42 0
-48 -103 -159 0
160 -38 -34 0
-160 -52 -91 0
-160 -55 -44 0
-160 -55 -46 0
-160 -92 -52 0
-160 -44 -59 0
-160 -46 -59 0
-160 -46 -60 0
-160 -60 -44 0
161 -53 -33 0
-101 -50 -161 0
-101 -43 -161 0
-101 -51 -161 0
-89 -43 -161 0
-89 -51 -161 0
-89 -50 -161 0
162 -52 -35 0
-100 -51 -162 0
-100 -43 -162 0
-100 -50 -162 0
-88 -43 -162 0
-88 -50 -162 0
-88 -51 -162 0
-80 163 -33 0
-51 -163 -59 0
-43 -163 -59 0
-55 -163 -50 0
-60 -163 -50 0
-43 -60 -163 0
-51 -55 -163 0
-43 -55 -163 0
164 -35 -81 0
-54 -164 -50 0
-54 -164 -43 0
-54 -164 -51 0
-164 -51 -58 0
-164 -43 -58 0
-61 -164 -50 0
-61 -164 -43 0
-52 165 -34 0
-55 -165 -49 0
-165 -59 -42 0
-165 -59 -49 0
-165 -60 -42 0
-165 -60 -49 0
-55 -165 -42 0
-30 166 -57 0
-166 -69 -49 0
-166 -69 -42 0
-48 -166 -69 0
-48 -166 -66 0
-166 -66 -42 0
-166 -66 -49 0
-56 -32 167 0
-167 -67 -42 0
-48 -167 -67 0
-167 -67 -49 0
-48 -167 -68 0
-167 -68 -49 0
-167 -68 -42 0
168 -35 -41 0
-168 -54 -107 0
-88 -61 -168 0
-88 -168 -58 0
-88 -54 -168 0
-168 -90 -73 0
-168 -93 -73 0
169 -41 -33 0
-55 -89 -169 0
-89 -60 -169 0
-89 -59 -169 0
-72 -91 -169 0
-72 -92 -169 0
-55 -106 -169 0
-32 -71 170 0
-42 -67 -170 0
-67 -170 -49 0
-48 -67 -170 0
-68 -42 -170 0
-68 -170 -49 0
-48 -68 -170 0
-70 -30 171 0
-48 -171 -66 0
-69 -171 -42 0
-69 -171 -49 0
-48 -69 -171 0
-66 -171 -42 0
-171 -66 -49 0
172 -36 -34 0
-55 -46 -172 0
-44 -59 -172 0
-46 -172 -59 0
-46 -60 -172 0
-44 -60 -172 0
-55 -44 -172 0
-16 173 -57 0
-23 -173 -154 0
-151 -173 -5 0
-6 -173 -161 0
-152 -173 -5 0
-24 -173 -162 0
-23 -173 -153 0
-56 174 -10 0
-23 -174 -154 0
-6 -174 -161 0
-151 -174 -5 0
-152 -174 -5 0
-24 -174 -162 0
-23 -174 -153 0
-37 -36 175 0
-175 -127 0
-128 -175 0
176 -38 -37 0
-176 -127 0
-128 -176 0
-39 177 -36 0
-128 -177 0
-127 -177 0
-39 178 -38 0
-128 -178 0
-127 -178 0
-31 179 -45 -37 0
-61 -179 0
-179 -58 0
-54 -179 0
-39 180 -47 -31 0
-54 -180 0
-180 -58 0
-61 -180 0
-29 -83 181 0
-176 -181 0
-175 -181 0
-181 -178 0
-181 -177 0
-29 -85 182 0
-176 -182 0
-175 -182 0
-182 -178 0
-182 -177 0
-28 -82 183 0
-175 -183 0
-183 -177 0
-176 -183 0
-183 -178 0
184 -84 -28 0
-184 -177 0
-184 -175 0
-184 -178 0
-176 -184 0
185 -37 -42 0
-125 -185 0
-124 -185 0
-123 -185 0
-126 -185 0
-48 186 -37 0
-126 -186 0
-124 -186 0
-123 -186 0
-125 -186 0
-37 187 -49 0
-187 -123 0
-124 -187 0
-125 -187 0
-126 -187 0
188 -36 -43 0
-124 -188 0
-188 -123 0
-125 -188 0
-126 -188 0
-36 189 -50 0
-189 -125 0
-126 -189 0
-189 -123 0
-189 -124 0
-36 -51 190 0
-190 -125 0
-190 -123 0
-190 -124 0
-126 -190 0
-38 -43 191 0
-191 -125 0
-191 -123 0
-191 -124 0
-191 -126 0
192 -38 -50 0
-192 -123 0
-192 -125 0
-192 -124 0
-192 -126 0
193 -38 -51 0
-123 -193 0
-125 -193 0
-124 -193 0
-126 -193 0
-39 194 -42 0
-124 -194 0
-126 -194 0
-125 -194 0
-123 -194 0
-48 -39 195 0
-195 -123 0
-125 -195 0
-124 -195 0
-126 -195 0
-39 196 -49 0
-124 -196 0
-126 -196 0
-196 -123 0
-125 -196 0
-62 197 -41 0
-126 -197 0
-197 -125 0
-197 -123 0
-197 -124 0
-63 198 -41 0
-198 -124 0
-198 -125 0
-198 -123 0
-126 -198 0
-40 -78 199 0
-199 -125 0
-199 -123 0
-199 -126 0
-199 -124 0
-40 -79 200 0
-200 -126 0
-200 -123 0
-200 -124 0
-200 -125 0
